
Gurobi 12.0.2 (win64) logging started Wed Jun  4 21:38:31 2025

Set parameter LogFile to value "C:\Ioana\_uni\honours\slp\algorithm\Main_files\results\others\neuro\Task_353_Sample001_irr_gurobi.log"
Gurobi Optimizer version 12.0.2 build v12.0.2rc0 (win64 - Windows 11.0 (26100.2))

CPU model: Intel(R) Core(TM) Ultra 5 125H, instruction set [SSE2|AVX|AVX2]
Thread count: 14 physical cores, 18 logical processors, using up to 18 threads

Non-default parameters:
TimeLimit  2200

Optimize a model with 47226 rows, 34492 columns and 146679 nonzeros
Model fingerprint: 0xf5f14da3
Variable types: 17247 continuous, 17245 integer (17245 binary)
Coefficient statistics:
  Matrix range     [1e-04, 8e+04]
  Objective range  [1e-04, 3e+00]
  Bounds range     [1e+00, 1e+03]
  RHS range        [1e+00, 1e+00]
Found heuristic solution: objective 0.0356341
Presolve removed 46628 rows and 34014 columns
Presolve time: 0.25s
Presolved: 598 rows, 478 columns, 1607 nonzeros
Variable types: 237 continuous, 241 integer (241 binary)

Root relaxation: objective 1.120166e-04, 57 iterations, 0.00 seconds (0.00 work units)

    Nodes    |    Current Node    |     Objective Bounds      |     Work
 Expl Unexpl |  Obj  Depth IntInf | Incumbent    BestBd   Gap | It/Node Time

     0     0    0.00011    0    6    0.03563    0.00011   100%     -    0s
     0     0    0.02586    0    3    0.03563    0.02586  27.4%     -    0s
     0     0    0.02587    0    1    0.03563    0.02587  27.4%     -    0s
     0     0    0.02587    0    6    0.03563    0.02587  27.4%     -    0s
     0     0    0.03338    0    5    0.03563    0.03338  6.33%     -    0s

Cutting planes:
  Learned: 1
  Cover: 1
  Network: 1

Explored 1 nodes (93 simplex iterations) in 0.29 seconds (0.30 work units)
Thread count was 18 (of 18 available processors)

Solution count 1: 0.0356341 

Optimal solution found (tolerance 1.00e-04)
Best objective 3.563411257646e-02, best bound 3.563411257646e-02, gap 0.0000%
